webassembly/ejemplos_dzn/15/folder15_json_83.dzn
TERM = { '.', 's(5)', 's(2)', 's(4)', 's(9)', 'in_1', 'local_1', 'in_2', 'in_4', 'in_3', 's(8)', 's(6)', 's(1)', 's(0)', 's(7)', 'in_5', 's(3)', 's(10)', 'in_0'};
null = '.';
s = 15;
n = 11;
ndeps = 7;
max_registers_sz = 4;
NR = 1;
registers = [|'local_1', 's(6)'|];
dependencies = [|'i32.load16_s_0', 'i32.store8_2', |'i32.store8_2', 'i32.load8_s_3', |'i32.store8_2', 'i32.load8_s_4', |'i32.store8_2', 'i32.load8_u_7', |'i32.load8_s_1', 'i32.store8_2', |'i32.load8_s_3', 'i32.store16_12', |'i32.load8_s_4', 'i32.store16_12'|];
GET_ENUM = { GET1, GET2, GET3, GET4, GET5};
SET_ENUM = { SET1, SET2, SET3, SET4, SET5};
TEE_ENUM = { TEE1, TEE2, TEE3, TEE4, TEE5};
N = 13;
OP = { 'i32.sub_0', 'i32.load16_s_0', 'i32.load8_s_1', 'i32.store8_2', 'i32.load8_s_3', 'i32.load8_s_4', 'i32.const_0', 'i32.load8_u_7', 'i32.const_1', 'i32.const_2', 'i32.store16_12', 'i32.add_0', 'i32.sub_1' };
in_ops = [2, 1, 1, 2, 1, 1, 0, 1, 0, 0, 2, 2, 2 ];
out_ops = [1, 1, 1, 0, 1, 1, 1, 1, 1, 1, 0, 1, 1 ];
in1 = ['in_4', 'in_0', 's(0)', 's(1)', 'in_2', 's(2)', '.', 's(8)', '.', '.', 's(9)', 's(3)', 's(5)' ];
in2 = ['in_5', '.', '.', 'in_1', '.', '.', '.', '.', '.', '.', 's(10)', 'in_3', 's(4)' ];
in3 = ['.', '.', '.', '.', '.', '.', '.', '.', '.', '.', '.', '.', '.' ];
out1 = ['s(7)', 's(0)', 's(1)', '.', 's(2)', 's(3)', 's(8)', 's(5)', 's(9)', 's(10)', '.', 's(4)', 's(6)' ];
out2 = ['.', '.', '.', '.', '.', '.', '.', '.', '.', '.', '.', '.', '.' ];
out3 = ['.', '.', '.', '.', '.', '.', '.', '.', '.', '.', '.', '.', '.' ];
comm = [false, false, false, false, false, false, false, false, false, false, false, true, false ];
gas = [1, 1, 1, 1, 1, 1, 1, 1, 1, 1, 1, 1, 1 ];
sz = [1, 1, 1, 1, 1, 1, 1, 1, 1, 1, 1, 1, 1 ];
stor = [false, false, false, true, false, false, false, false, false, false, true, false, false ];
lb = [ 1, 1, 1, 1, 1, 1, 1, 1, 1, 1, 1, 1, 1 ];
ub = [ 15, 15, 15, 15, 15, 15, 15, 15, 15, 15, 15, 15, 15 ];
startstack = [ 'in_0', 'in_1', 'in_2', 'in_3', 'in_4', 'in_5', null, null, null, null, null ];
endstack = [ 's(7)', null, null, null, null, null, null, null, null, null, null ];
