webassembly/ejemplos_results/folder15_json_83.txt
value = 15;
fgas = [1, 1, 1, 1, 1, 1, 1, 1, 1, 1, 1, 1, 1, 1, 1];
fsize = [1, 1, 1, 1, 1, 1, 1, 1, 1, 1, 1, 1, 1, 1, 1];
states = 
[|    in_0,    in_1, in_2, in_3, in_4, in_5, '.', '.', '.', '.',  '.'
 |  's(0)',    in_0, in_2, in_3, in_4, in_5, '.', '.', '.', '.',  '.'
 |  's(1)',    in_1, in_2, in_3, in_4, in_5, '.', '.', '.', '.',  '.'
 |  's(3)',    in_3, in_4, in_5,  '.',  '.', '.', '.', '.', '.',  '.'
 |  's(4)',    in_0, in_5,  '.',  '.',  '.', '.', '.', '.', '.', in_0
 |  's(9)', 's(10)', in_0, in_5,  '.',  '.', '.', '.', '.', '.',  '.'
 |    in_2,    in_5,  '.',  '.',  '.',  '.', '.', '.', '.', '.',  '.'
 |  's(2)', 's(10)',  '.',  '.',  '.',  '.', '.', '.', '.', '.',  '.'
 |  's(3)',    in_3,  '.',  '.',  '.',  '.', '.', '.', '.', '.',  '.'
 |  's(4)',    in_5,  '.',  '.',  '.',  '.', '.', '.', '.', '.', in_0
 | 's(10)',    in_0, in_5,  '.',  '.',  '.', '.', '.', '.', '.',  '.'
 |  's(8)',    in_0, in_0, in_5,  '.',  '.', '.', '.', '.', '.',  '.'
 |  's(5)',  's(4)', in_0, in_5,  '.',  '.', '.', '.', '.', '.',  '.'
 |  's(6)',    in_4, in_5,  '.',  '.',  '.', '.', '.', '.', '.',  '.'
 |    in_4,    in_5,  '.',  '.',  '.',  '.', '.', '.', '.', '.',  '.'
 |  's(7)',     '.',  '.',  '.',  '.',  '.', '.', '.', '.', '.',  '.'
 |];
register_states = 
[| local_1, '.', '.', '.', '.'
 | local_1, '.', '.', '.', '.'
 | local_1, '.', '.', '.', '.'
 | local_1, '.', '.', '.', '.'
 | local_1, '.', '.', '.', '.'
 | local_1, '.', '.', '.', '.'
 | local_1, '.', '.', '.', '.'
 | local_1, '.', '.', '.', '.'
 | local_1, '.', '.', '.', '.'
 | local_1, '.', '.', '.', '.'
 | local_1, '.', '.', '.', '.'
 | local_1, '.', '.', '.', '.'
 | local_1, '.', '.', '.', '.'
 | local_1, '.', '.', '.', '.'
 |  's(6)', '.', '.', '.', '.'
 |  's(6)', '.', '.', '.', '.'
 |];
program = [O('i32.load16_s_0'), O('i32.load8_s_1'), O('i32.store8_2'), O('i32.add_0'), O('i32.const_1'), O('i32.store16_12'), O('i32.load8_s_3'), O('i32.load8_s_4'), O('i32.add_0'), O('i32.const_2'), O('i32.const_0'), O('i32.load8_u_7'), O('i32.sub_1'), S(SET1), O('i32.sub_0')];
% time elapsed: 0.26 s
----------
value = 14;
fgas = [1, 1, 1, 1, 1, 1, 1, 1, 1, 1, 1, 1, 1, 1, 0];
fsize = [1, 1, 1, 1, 1, 1, 1, 1, 1, 1, 1, 1, 1, 1, 1];
states = 
[|    in_0,    in_1,   in_2, in_3, in_4, in_5, '.', '.', '.', '.',     '.'
 |  's(0)',    in_0,   in_2, in_3, in_4, in_5, '.', '.', '.', '.',     '.'
 |  's(1)',    in_1,   in_2, in_3, in_4, in_5, '.', '.', '.', '.',     '.'
 |  's(3)',    in_3,   in_4, in_5,  '.',  '.', '.', '.', '.', '.',     '.'
 |  's(4)',    in_0,   in_5,  '.',  '.',  '.', '.', '.', '.', '.',    in_0
 |  's(9)', 's(10)',   in_0, in_5,  '.',  '.', '.', '.', '.', '.',     '.'
 |    in_2,    in_5,    '.',  '.',  '.',  '.', '.', '.', '.', '.', local_1
 |  's(2)',    in_0,    '.',  '.',  '.',  '.', '.', '.', '.', '.', local_1
 |  's(3)',    in_5,    '.',  '.',  '.',  '.', '.', '.', '.', '.', local_1
 | 's(10)',  's(3)',   in_5,  '.',  '.',  '.', '.', '.', '.', '.',     '.'
 |  's(8)', 's(10)', 's(3)', in_5,  '.',  '.', '.', '.', '.', '.',     '.'
 |  's(5)',  's(4)', 's(3)', in_5,  '.',  '.', '.', '.', '.', '.',     '.'
 |  's(6)',    in_4,   in_5,  '.',  '.',  '.', '.', '.', '.', '.',     '.'
 |    in_4,    in_5,    '.',  '.',  '.',  '.', '.', '.', '.', '.',     '.'
 |  's(7)',     '.',    '.',  '.',  '.',  '.', '.', '.', '.', '.',     '.'
 |  's(7)',     '.',    '.',  '.',  '.',  '.', '.', '.', '.', '.',     '.'
 |];
register_states = 
[| local_1, '.', '.', '.', '.'
 | local_1, '.', '.', '.', '.'
 | local_1, '.', '.', '.', '.'
 | local_1, '.', '.', '.', '.'
 | local_1, '.', '.', '.', '.'
 | local_1, '.', '.', '.', '.'
 | local_1, '.', '.', '.', '.'
 | local_1, '.', '.', '.', '.'
 | local_1, '.', '.', '.', '.'
 | local_1, '.', '.', '.', '.'
 | local_1, '.', '.', '.', '.'
 | local_1, '.', '.', '.', '.'
 | local_1, '.', '.', '.', '.'
 |  's(6)', '.', '.', '.', '.'
 |  's(6)', '.', '.', '.', '.'
 |  's(6)', '.', '.', '.', '.'
 |];
program = [O('i32.load16_s_0'), O('i32.load8_s_1'), O('i32.store8_2'), O('i32.add_0'), O('i32.const_1'), O('i32.store16_12'), O('i32.load8_s_3'), O('i32.load8_s_4'), O('i32.const_2'), O('i32.const_0'), O('i32.load8_u_7'), O('i32.sub_1'), S(SET1), O('i32.sub_0'), NOP];
% time elapsed: 0.28 s
----------
==========
% time elapsed: 0.53 s
% [value > 13]
